25 40
1 2 1
1 6 4
2 3 2
2 7 4
3 4 2
3 8 2
4 5 4
4 9 3
5 10 3
6 7 5
6 11 3
7 8 3
7 12 3
8 9 5
8 13 5
9 10 5
9 14 4
10 15 3
11 12 1
11 16 4
12 13 4
12 17 4
13 14 2
13 18 3
14 15 3
14 19 5
15 20 4
16 17 3
16 21 4
17 18 2
17 22 5
18 19 2
18 23 5
19 20 4
19 24 4
20 25 3
21 22 3
22 23 1
23 24 5
24 25 4
